Problem:    simplex
Rows:       9
Columns:    4
Non-zeros:  17
Status:     OPTIMAL
Objective:  obj = -22.66666667 (MINimum)

   No.   Row name   St   Activity     Lower bound   Upper bound    Marginal
------ ------------ -- ------------- ------------- ------------- -------------
     1 obj          B       -22.6667                             
     2 c1           B        3.33333                           4 
     3 c2           B              0                           2 
     4 c3           NU             3                           3      -1.33333 
     5 c4           NU             4                           4      -4.66667 
     6 c5           NL             0            -0                           1 
     7 c6           B       0.333333            -0               
     8 c7           B              3            -0               
     9 c8           NS             0            -0             =         < eps

   No. Column name  St   Activity     Lower bound   Upper bound    Marginal
------ ------------ -- ------------- ------------- ------------- -------------
     1 x1           B              0                             
     2 x2           B       0.333333                             
     3 x3           B              3                             
     4 z            B       -22.6667                             

Karush-Kuhn-Tucker optimality conditions:

KKT.PE: max.abs.err = 0.00e+000 on row 0
        max.rel.err = 0.00e+000 on row 0
        High quality

KKT.PB: max.abs.err = 0.00e+000 on row 0
        max.rel.err = 0.00e+000 on row 0
        High quality

KKT.DE: max.abs.err = 0.00e+000 on column 0
        max.rel.err = 0.00e+000 on column 0
        High quality

KKT.DB: max.abs.err = 0.00e+000 on row 0
        max.rel.err = 0.00e+000 on row 0
        High quality

End of output
